CUST NO.,XCOORD.,YCOORD.,updated_SERVICE_TIME,DEMAND,TW_START,TW_END
3,55,45.0,8,1.1,400.0,750.0
6,25,30.0,8,0.7,0.0,600.0
7,20,50.0,8,0.4,0.0,600.0
8,10,43.0,8,0.8,0.0,600.0
12,50,35.0,8,2.1,0.0,600.0
13,30,25.0,8,23.0,650.0,1000.0
14,15,10.0,8,2.2,0.0,600.0
15,30,5.0,8,0.5,0.0,600.0
19,15,60.0,8,1.1,0.0,600.0
20,45,65.0,8,0.7999999999999999,400.0,750.0
22,45,10.0,8,1.9000000000000001,0.0,600.0
26,35,35.0,0,0.0,0.0,0.0
capacity,1000,,0,0.0,,
